mode: 3, sl: 0, sr: 0, revisit: 1, loop: 1
Jetsuite speed factor: 7.86
Solving mode: 3-indexed base
Solving mode: 3-indexed base
Instance name: /home/orlab/rv-fstsp2/rv-fstsp-jetsuite/Niels_instances/output_with_jetsuite//uniform-51-n10-maxradius-150.txt
---------------------------------------------------------------
Current config:
- Number of threads = -1
- Drone endurance = 9999
- SL = 0
- SR = 0
- Allow loop = 1
- Allow revisit = 1
- Allow multi-visit drone = 0
- Use TSP optimal solution as warmstart: = 0
- Use cutting plane method: = 0
- Use CPLEX conflict refiner: = 0
- Debug info: = 0
- Jetsuit enabled: = 0
---------------------------------------------------------------
Version identifier: 22.1.1.0 | 2022-11-28 | 9160aff4d
Tried aggregator 2 times.
MIP Presolve eliminated 1114 rows and 2171 columns.
MIP Presolve modified 1415 coefficients.
Aggregator did 9 substitutions.
Reduced MIP has 1249 rows, 3780 columns, and 30893 nonzeros.
Reduced MIP has 3760 binaries, 0 generals, 0 SOSs, and 0 indicators.
Presolve time = 0.02 sec. (44.34 ticks)
Found incumbent of value 91085.781372 after 0.03 sec. (67.93 ticks)
Probing fixed 54 vars, tightened 18 bounds.
Probing changed sense of 5 constraints.
Probing time = 0.08 sec. (186.17 ticks)
Cover probing fixed 0 vars, tightened 22 bounds.
Tried aggregator 2 times.
Detecting symmetries...
MIP Presolve eliminated 53 rows and 121 columns.
MIP Presolve modified 2407 coefficients.
Aggregator did 12 substitutions.
Reduced MIP has 1181 rows, 3647 columns, and 30195 nonzeros.
Reduced MIP has 3634 binaries, 0 generals, 0 SOSs, and 0 indicators.
Presolve time = 0.02 sec. (49.25 ticks)
Probing time = 0.00 sec. (7.84 ticks)
Cover probing fixed 0 vars, tightened 3 bounds.
Clique table members: 14639.
MIP emphasis: balance optimality and feasibility.
MIP search method: dynamic search.
Parallel mode: deterministic, using up to 20 threads.
Root relaxation solution time = 0.06 sec. (134.91 ticks)

        Nodes                                         Cuts/
   Node  Left     Objective  IInf  Best Integer    Best Bound    ItCnt     Gap

*     0+    0                        91085.7814       32.2180            99.96%
      0     0       65.4048   118    91085.7814       65.4048     1973   99.93%
*     0+    0                          588.6314       65.4048            88.89%
*     0+    0                          269.6189       65.4048            75.74%
      0     0       86.0863   134      269.6189      Cuts: 49     4197   68.07%
      0     0       86.3545   171      269.6189      Cuts: 41     4922   67.97%
*     0+    0                          265.4571       86.3545            67.47%
      0     0       86.5585   160      265.4571      Cuts: 45     5824   67.39%
*     0+    0                          244.4649       86.5585            64.59%
      0     0  -1.00000e+75     0      244.4649       86.5585     5824   64.59%
      0     0       86.6208   149      244.4649      Cuts: 29     7753   64.57%
      0     0       86.7889   206      244.4649      Cuts: 25     8304   64.50%
Detecting symmetries...
*     0+    0                          242.4789       86.7889            64.21%
      0     0       87.0120   213      242.4789      Cuts: 32     9311   64.12%
      0     0       87.3752   206      242.4789      Cuts: 25    10256   63.97%
      0     0       87.4268   203      242.4789      Cuts: 26    10526   63.94%
      0     0       87.4744   192      242.4789      Cuts: 26    11059   63.92%
      0     0       87.5687   185      242.4789      Cuts: 23    11214   63.89%
      0     0       87.6733   189      242.4789      Cuts: 17    11327   63.84%
      0     0       87.6821   250      242.4789       Cuts: 8    11893   57.44%
      0     0       87.6912   224      242.4789       Cuts: 4    11911   57.44%
      0     0       87.6933   235      242.4789      Cuts: 28    12087   57.44%
*     0+    0                          227.8596      103.2036            54.71%
      0     0  -1.00000e+75     0      227.8596      103.2036    12087   54.71%
Detecting symmetries...
      0     2       87.6933   178      227.8596      103.2036    12087   54.71%
Elapsed time = 2.28 sec. (2939.61 ticks, tree = 0.02 MB, solutions = 7)
    333    61      217.7697   106      227.8596      103.2036    37236   54.71%
   1001   146    infeasible            227.8596      103.2036   106340   54.71%
   1849    50      159.3303   101      227.8596      103.2036   165645   54.71%
   1914    22        cutoff            227.8596      103.2036   193732   54.71%
   2224    23        cutoff            227.8596      103.2036   209269   54.71%
   2658    26        cutoff            227.8596      103.2036   255520   54.71%
   3372   224      181.3039   120      227.8596      112.1029   321750   50.80%
   4238   194      217.1510    41      227.8596      112.1029   372523   50.80%
   4531    29        cutoff            227.8596      112.1029   424229   50.80%
   5803   422      191.7674   149      227.8596      118.7524   602563   47.88%
Elapsed time = 5.73 sec. (6045.05 ticks, tree = 0.49 MB, solutions = 7)
   7039  1003        cutoff            227.8596      122.5104   858054   46.23%
   8893  1687      209.9382    62      227.8596      122.5731  1080494   46.21%

Performing restart 1

Repeating presolve.
Tried aggregator 2 times.
MIP Presolve eliminated 92 rows and 18 columns.
MIP Presolve modified 12625 coefficients.
Aggregator did 1 substitutions.
Reduced MIP has 1087 rows, 3628 columns, and 23238 nonzeros.
Reduced MIP has 3616 binaries, 0 generals, 0 SOSs, and 0 indicators.
Presolve time = 0.01 sec. (29.52 ticks)
Tried aggregator 1 time.
MIP Presolve eliminated 9 rows and 0 columns.
MIP Presolve modified 112 coefficients.
Reduced MIP has 1078 rows, 3628 columns, and 23031 nonzeros.
Reduced MIP has 3616 binaries, 0 generals, 0 SOSs, and 0 indicators.
Presolve time = 0.01 sec. (19.69 ticks)
Represolve time = 0.10 sec. (194.02 ticks)
   9240     0       88.7711   239      227.8596      Cuts: 41  1178108   44.44%
   9240     0       89.2526   232      227.8596      Cuts: 45  1178749   44.44%
   9240     0       89.4091   243      227.8596      Cuts: 26  1179589   44.44%
   9240     0       96.0934   195      227.8596      Cuts: 32  1181119   44.44%
   9240     0       96.3803   207      227.8596      Cuts: 27  1182723   44.44%
   9240     0       97.6721   211      227.8596      Cuts: 27  1183161   44.44%
   9240     0       98.3065   209      227.8596      Cuts: 12  1183623   44.44%
   9240     2       98.3065   209      227.8596      126.5902  1183623   44.44%
   9243     5      130.3510   169      227.8596      126.5902  1187235   44.44%
   9488    19      225.4642    44      227.8596      126.5902  1212322   44.44%
  11132    39        cutoff            227.8596      126.5902  1299991   44.44%
  11717   110      191.6970   126      227.8596      126.5902  1367004   44.44%
  11993   217        cutoff            227.8596      126.5902  1415252   44.44%
  12844   367      205.1492    86      227.8596      126.5902  1480500   44.44%
  14247  1125      215.4572   115      227.8596      164.0003  1619884   28.03%
Elapsed time = 18.49 sec. (20329.94 ticks, tree = 4.33 MB, solutions = 7)
  14689  1098      206.6604   112      227.8596      164.0003  1671881   28.03%
  16678  1637      204.3643    60      227.8596      164.0003  1834431   28.03%
  17449  1500      193.1027   136      227.8596      188.6624  1897438   17.20%
  20656  1917        cutoff            227.8596      194.4979  2098497   14.64%
  24937   351        cutoff            227.8596      197.3340  2231217   13.40%
  25105     8      219.3560   141      227.8596      205.2722  2274730    9.91%

Clique cuts applied:  2
Cover cuts applied:  16
Implied bound cuts applied:  7
Flow cuts applied:  8
Mixed integer rounding cuts applied:  42
Zero-half cuts applied:  11
Lift and project cuts applied:  9
Gomory fractional cuts applied:  3

Root node processing (before b&c):
  Real time             =    2.24 sec. (2867.93 ticks)
Parallel b&c, 20 threads:
  Real time             =   23.06 sec. (23635.42 ticks)
  Sync time (average)   =    8.54 sec.
  Wait time (average)   =    0.01 sec.
                          ------------
Total (root+branch&cut) =   25.30 sec. (26503.35 ticks)
Solve time: 25.307
Objective Value: 227.86

Truck Schedule: 
Stage 1: Truck arrived node 0 at 0
	Truck departed from node 0 to node 4 at 0
Stage 2: Truck arrived node 4 at 84.9692
	Truck departed from node 4 to node 4 at 84.9692
Stage 3: Truck arrived node 4 at 84.9692
	Truck departed from node 4 to node 4 at 107.173
Stage 4: Truck arrived node 4 at 107.173
	Truck departed from node 4 to node 6 at 130.518
Stage 5: Truck arrived node 6 at 184.23
	Truck departed from node 6 to node 10 at 186.001
Stage 6: Truck arrived node 10 at 218.219

Truck arc:
Stage 1: 0 -> 4
Stage 2: 4 -> 4
Stage 3: 4 -> 4
Stage 4: 4 -> 6
Stage 5: 6 -> 10

Drone Schedule: 
Stage 1 to 2: Drone departed from node 0 visited customer 5 and arrived to node 4
	 Departed at: 0
	 Visited at: 47.6745
	 Arrived at: 78.7389
Added drone operation: position 0 (node 0) -> customer 5 -> position 1 (node 4)
Stage 2 to 3: Drone departed from node 4 visited customer 7 and arrived to node 4
	 Departed at: 84.9692
	 Visited at: 96.071
	 Arrived at: 107.173
Added drone operation: position 1 (node 4) -> customer 7 -> position 2 (node 4)
Stage 3 to 4: Drone departed from node 4 visited customer 3 and arrived to node 4
	 Departed at: 107.173
	 Visited at: 118.845
	 Arrived at: 130.518
Added drone operation: position 2 (node 4) -> customer 3 -> position 3 (node 4)
Stage 4 to 5: Drone departed from node 4 visited customer 1 and arrived to node 6
	 Departed at: 130.518
	 Visited at: 149.967
	 Arrived at: 186.001
Added drone operation: position 3 (node 4) -> customer 1 -> position 4 (node 6)
Stage 5 to 6: Drone departed from node 6 visited customer 2 and arrived to node 10
	 Departed at: 186.001
	 Visited at: 206.671
	 Arrived at: 227.86
Added drone operation: position 4 (node 6) -> customer 2 -> position 5 (node 10)

Jetsuite Schedule: 
Stage 2: Jetsuite launched from node 4 served customer 8 and recovered at node 4
Stage 3: Jetsuite launched from node 4 served customer 9 and recovered at node 4
x[0][4][1] = 1
x[4][4][2] = 1
x[4][4][3] = 1
x[4][6][4] = 1
x[6][10][5] = 1

Drone Variables (V[i][h][k]):
Y[0][5][1] = 1
Y[4][1][4] = 1
Y[4][3][3] = 1
Y[4][7][2] = 1
Y[6][2][5] = 1

Jetsuite Variables (U[i][h][k]):
U[4][8][2] = 1
U[4][9][3] = 1

Checking the feasibility of the solution...
Time schedule is not given, recalculating...
The objective matches the recalculated objective
The solution is feasible
